[uniartisan's Privacy List]
! Version: 202512140220
! Title: uniartisan's Privacy List
! Expires: 1 days (update frequency)
! URL = https://github.com/uniartisan/adblock_list
! Length = 115578
||a8cv.vieon.co.jp^
||qpielh.kfhi.or.kr^
||zjzste.tom-tailor.de^
||smetrics.solidigm.de^
||data-a85b10211f.rnz.info^
||track.residentialbenefits.com^
||tr.pro.odalys-campus.com^
||cdn.gamer-network.net/*/scripts/mormont
||api.mestracegonhas.com^
||sst.myclarella.com^
||popin.cc/test/popin_img_m.js
||afisha.ru^$cookie=_egguid
||kallerupstone.viessmann.dk^
||analytics.nrgprotects.com^
$removeparam=publish_id,domain=shopee.ph|shopee.co.th|shopee.co.id
||events.gfe.nvidia.com^
||a15833.actonservice.com^
view.email-uwcentralcarolinas.org$image
||adtd.douglas.lt^
||marketing.access2dayhealth.com^
||html5.gamedistribution.com^$removeparam=mp_embed
||tatrack.thinkyeah.com^
||statse.deka-etf.de^
||mkt.detechtion.com^
||info.ttmc.co.uk^
||snowdayonline.xyz^$third-party
||data-47ee1b0882.capitol-kornwestheim.de^
||gtm.agapedesign.it^
||g.mashable.com^
||mcgst.homedone.co.uk^
view.franchisesales.upsstore.com$image
zdactzl96snkye37.click.s11.sfmc-osl.com$image
||smetrics.hks-power.co.jp^
||info.abcsd.org^
||app.arts.uci.edu^
||hc.uralweb.ru^
||pspro.prakritirshomahar.com^
cloud.email-wwt.com$image
||airvpn.org^$removeparam=referred_by
click.service.wellingtonairport.co.nz$image
||a8cv.nifty.com^
newslink.theinsurer.com$image
||jihzn.feature.com^
||plausible.flamekiller.org^
/nnamdnas.js
||upstackified.com^
||eou.andresalata.com.br^
||load.rpbc1.smartblinds.com^
view.emailbenefithub.in$image
@@||cib.com.cn/cn/*/js/*/sensorsdata.min.js
@@||marketingautomation.services^$script,domain=leeuwerik.nl
||tr.email.chapsvisioncloud.com^
||success.ebmcatalyst.com^
||maper.info^$third-party
email.jobadder.socode.co.uk$image
view.psepr-mail.com$image
huntress.com#%#//scriptlet('set-local-storage-item', 'snowplowOutQueue_cf', '$remove$')
||email-am.jll.pe^
||ask.antalis.es^
||gtm.metodofestatododia.com.br^
j-cast.com###cxRelatedEntry
||clog*.yuanfudao.com^
||web.snrbox.com/tck/$domain=komputronik.pl
||maaiuh.tomorrowland.co.jp^
||btcfbr.mejshop.jp^
||scmetrics.vodafone.it^
||marketing.vertexcs.com^
||hal.courrierinternational.com^
||affiliate.velebny.cz^
link.phoenixraceway.com$image
cloud.info.bobbibrown.co.uk$image
||bh.groc.press^
mg.p.bootbarn.com$image
||data-bae5a0a55a.apps.iocnt.de^
||smetrics.marketing.lighting.philips.com.br^
||nlytcs.idfnet.net^
||ulog*.kwai-pro.com^
||a.sbnw.in^
$removeparam=oprtrack
||sadloaf.com^
||metrics.commonclaimsmistakesvideo.com^
||partner.cbdsuperhero.cz^
pcmag.com##img[src^="https://t.myvisualiq.net/"]
||metrics.sasktel.com^
email.mg.rtrv.in$image
||mkt.environmentsatwork.com^
||ctinsider.com/413gkwMT/init.js
.info.kansaimiraibank.co.jp/c/*.gif
||go.frip.kr^
@@||pingan.com.cn^*/logger.js?
||rechenschieber.transfermarkt.es^
||metric.northeast.aaa.com^
||analytics.metro.bg^
@@||api.cxense.com/public/widget/data?json=$domain=pcgames.de
/?dm=*&blogid=$script
||calldesignna.actonservice.com^
||go.greenlee.emerson.com^
||stats.big-boards.com^
@@||google-analytics.com/analytics.js$domain=haz.de
||app.hauskey.com^
/js/script.pageview-props.
||convertglobal.com^$third-party
/log_h.jsp
||data-fa59f9f6b5.kronberger-lichtspiele.de^
click.email-visiongroupcanada.ca$image
email.email.archetypestrength.com$image
||sonar6-ccu1-2.xx.fbcdn.net.iberostar.com^
||curveshore.com^
||zarget.com^$third-party
||rigvedawiki.net/r*/referer.php
email.blocshare.co$image
||ipt.arthritis-uk.org^
email.do-not-reply.siftrsales.com$image
||x.com/1.1/jot
||smetrics.equitable.com^
info.avitaonline.com$image
view.services.total.co.za$image
||api2.clubedeliveryads.com.br^
||tagmanager.2dehands.be^
||stats.munters.com.sg^
||mvvpk.particleformen.com^
||data.ajo.desertwolveslasvegas.com^
||app.info.avid.com^
||ss.domesticoshop.com^
||trk.pedrogil.com^
||uarpqu.altrism.com^
||tr.business-deal.nl^
||a8clk.staff.mynavi.jp^
||get.noonlight.com^
||igsev.stonewallkitchen.com^
||mail.dolce-gusto.com.tw^
||r.phhhoto.com^
$cookie=ubvs
email.communications.oakland.k12.mi.us$image
||faibl.org^$third-party
||webstats.cbre.com^
$cookie=remixgp
||smetrics.caribbeanjobs.com^
||bxbuvv.zeelool.com^
||gtmserver.renataiglesias.com.br^
||a8clk.d.toyo-case.co.jp^
cloud.acpnycommunications.com$image
||load.ss.paradigit.ie^
@@||google-analytics.com/analytics.js$domain=uniqlo.com
||a39498.actonservice.com^
view.news.carminashoemaker.com$image
||dii.bankaust.com.au^
||spelar.org^$third-party
||tags.stepstone.com^
||email.clearscore.com^
||a45733.actonservice.com^
||api.irmaosnails.com^
||goat.dabric.xyz^
||sedotracker.de^$third-party
||godaddy.com/js/gdwebbeacon.js
||track.vscash.com^
||marketing.connectandsell.com^
||marketing.optimumenergyco.com^
||analytics.callbell.eu^
||etsy.com/bcn/beacon
||ijtazz.boscooutlet.ru^
||moviepilot.de/assets/autotrack-
view.foundationone.roche.com$image
pub.marketing-sportsmansguide.com$image
||a8.kateikyoushi.kuraveil.jp^
||data-c662a60daa.kabeleinsdoku.de^
||firecrux.com/track/$xmlhttprequest
||metrics.pvh.com^
click.olive-email.com$image
||app-tracking.hlogo.de^
email.livwise.be$image
||lnkd.in/li/track
link.927theblock.com$image
||metrics.ambetterhealth.com^
||invite.urbanclap.com^
||a13111.actonservice.com^
||fgfecw.rebelle.com^
||rcbsrm.fivefoxes.co.jp^
||aa.db-finanzberatung.de^
||observe-nexus.pointandplace.com^
||whisperingcascade.com^
||images.go.vertivco.com^
email.aie.org.au$image
||analytics.apnewsregistry.com^
||swirlstop.com^
/activity.gif?
||sexu.com/api/ttrack
||track.study-academy.de^
||smetrics.bbvanet.com.co^
||sanalytics.tntsports.com.ar^
||trk.nimasound.com^
||afcfbs.icaniwill.de^
email.secure.scottscheper.com$image
||events.swiftlycontent.net^
||barbarousbase.com^
||cdn.q0losid.com^
||tr-ms.profilo.com^
||via.ssl.holdmybeerconsulting.com^
email.mail.thespanishenabler.com$image
pro.kerastase-usa.com$image
||mas.nth.ch^
||data-24d7667a6a.apps.iocnt.de^
||eurotax-hr.autovistagroup.com^
email.contact.debambinos.com$image
||combcattle.com^
||analytics.lifestyledemocracy.com^
||tracking.kdata.fr^
||fcswcx.cyrillus.fr^
@@||zoominfo.com/c/amplitude-js$script,~third-party
/s.png?event=
||trk.elmlea.com^
||mixnews.lv/wp-content/uploads/perfmatters/gtagv*.js
||websdk.metro.de^
||datarating.com^$third-party
/roiengine.js
||istrack.com^$third-party
||branch.whatsnxt.app^
||zxwows.tucanourbano.com^
||marketing.smartcenter.nl^
||stats-*.p2pnow.ru^
||smetrics.newport.com^
pages.mail.casper.com$image
||metrics.newbalance.co.uk^
||go.lanmark360.com^
||gompkg.afm-telethon.fr^
||smetrics.marketing.lighting.philips.se^
||grxxvx.centerparcs.nl^
||tpstelemetry.tencent.com^
||sstats.mistergooddeal.com^
email.update.adilqadri.com$image
email.e.sill.social$image
/mendelstats.
||custom.tkb889.pics^
/t?referer=
||pmazpg.legalzoom.com^
||data.eetech.com^
||78.46.19.203^$third-party,domain=~sprueche-zitate.net.ip
view.email.schwabinstitutional.com$image
||rtk.trk.moresavingsdaily.com^
||sxjfhh.freep.com^
||branch.shuruapp.com^
||go.polarleasing.com^
||api.findenkaereste.dk^
||temu.com^$removeparam=_x_vst_scene
||filbrandtco.actonservice.com^
||stape1.clubelotosport.com.br^
||tr.webantenna.info^
webviewer.interstuhlnet.de#%#//scriptlet('set-constant', 'WURFL', 'emptyObj')
||go.erasilk.com^
||marketing.punctuation.com^
||analytics.valotool.com^
||analytics.pgncs.notion.so^
||smetrics.moneta.cz^
email.luceila.beinvest.cl$image
||swa.millesima-usa.com^
||tracking.popbasement.com^
://emailtracking.$image
||sr.mistermenuiserie.com^
||connect.mdtelephone.com^
||qktnee.fribikeshop.dk^
||ad.inhaabit.com^
||link.tradee.com^
||azaob.sistaco.co.nz^
||pathfinder.analytics.komoot.net^
||a43968.actonservice.com^
pages.winnersinvestings.com$image
||su.modul-air.com^
||tracking.noen.at^
||smetrics.hitachi-hightech.com^
$cookie=li_sugr
||ogscis.vitacup.com^
/stats.cgi$image
||gtm.bstrade.nickdovirtual.com^
||nsmetrics.vogue.com.au^
@@||pixel.adsafeprotected.com/services/pub?$xmlhttprequest,removeparam=anId,domain=reuters.com
||tag-based.s3.*.amazonaws.com^$third-party
||analytics.chefmaison.com^
||data-1059b0a270.apps.iocnt.de^
email.campaign.thevirtualedge.com$image
||svoywu.autoscout24.de^
||euefq.louisvilleaddictioncenter.com^
||streamable.com^$removeparam=src_player
||51nongyao.net/js/analytics.js
||ehmmn.thunderbirdskin.com^
cloud.salesforce.copel.com$image
||faqtjp.redley.com.br^
.redsift.com/e/o/$image
||ssdc.easybank.at^
||load.servergtm.flawlessfinejewelry.com^
||webcontr.reisprinzen.de^
||marketing.crypkey.com^
||go.imaginecommunications.com^
/b/ss/*?pagename=
||nffai.brownsfamilyjewellers.co.uk^
||paginegialle.it/engagement.js
||wxebye.aboutyou.hu^
||marketing.libertyhomeequity.com^
||isprq.lovesweatfitness.com^
||ltecrf.dhgate.com^
||ss.getjethose.com^
||analy1.dtnnetwork.be^$third-party
||gwtc.sfr.fr^
||swan.visualma.com^
||t.alsovision.it^
||gtm.bichoroyal.com^
||wbdx.fr^$third-party
mail.metrapay.com$image
||smetrics.sherwoodmotorcars.com^
||data-f62d7c5cdb.mannheimer-morgen.de^
||sw88.disneyonstage.co.uk^
||surfacesmedia.com^
||wzkhzb.cantao.com.br^
||smetrics.aa.com.do^
||metric.inetcore.com^
||marketing.vippetcare.com^
email.alux.com$image
||gtm.useupdate.com.br^
email.m.nci.university$image
||marketing.nacsescrow.com^
?action=koko_analytics_collect
||go.topbetsbr.net^
view.myboscolo.com$image
||a.munters.it^
||wave.getonthewave.com^
||oprjr.shopfavoritedaughter.com^
||app.info.profilesinternational.com^
email.email.mantissa.edu.my$image
||arincol.arin-innovation.com^
||jjnrd.loversstores.com^
||data-80d2d17df3.traunsteiner-tagblatt.de^
||unloadyourself.com^
||endjb.trendozashop.com^
||smetrics.benefitcosmetics.com.cn^
||awaliwa.com^$removeparam=bd_vid
||axp.myhighplains.com^
||api.rennancaminhotto.com.br^
/ctr_tracking.php?
/nielsen.htm
||qdumq.amethysthome.com^
||email-eloqua.branch.rocks^
||omappapi.com^$third-party
||kgmmfk.galcomi.jp^
||smetrics.svd.se^
||smetrics.10.com.au^
||elqtrk.ext.hp.com^
||logapi-and.zhipin.com^
||uncn.jp^$third-party
||smct.co^
||visualstudio.com/v2/track
||event.playground.ru^
sahibinden.com%2Fmail%2FreadStatistics%2F$image
||analytics.motoemotostore.it^
||metrics.directtv.com^
||doctolib.de^$removeparam=utm_website
||smetrics.doorsteps.com^
||secure.imaginativeenterprising-intelligent.com^
||join.tlon.io^
||vividplume.com^
||vortex.hulu.com^
||ee93.pandasuite.io^
||tktlt.freedomfatigues.com^
||tracking.nymphomaneladies.de^
||st.work.ua/js/send_stat-min_*.js
@@||ev.tpocdm.com^$xmlhttprequest,domain=wowma.jp
||responsemp.civica.com^
||analytics-ingestion-production.tubitv.com^
click.part.smartinvestmenttoday.com$image
&ev=PageView&
click.mc-trustingheart.com$image
||smetrics.fnac.es^
||somniture.handlesets.com^
||a45415.actonservice.com^
||engage.3m.com.bo^
||api-meta.mercelsantos.com.br^
@@||pixel.facebook.com/ajax/notifications/mark_read.php?*&alert_ids%$image
$cookie=sgv,domain=wp.pl|money.pl|o2.pl|pudelek.pl|komorkomania.pl|gadzetomania.pl|fotoblogia.pl|autokult.pl|abczdrowie.pl|parenting.pl|videostar.pl|autocentrum.pl|benchmark.pl
||zerkalo.io^$removeparam=vk
||apien.consejosyrecetas.com^
||gtm.claudiaadvprevidenciaria.com.br^
||nbacasp1.essenceassistcenter.com^
||cmp.telerama.fr^
||ebay.com^*/customer_image_service?
||somni.vikingcruises.com^
mandrillapp.com/track$image
||data.ehu.nespresso.com^
email.contact.tonysuriano.com$image
||unitymedia.de/beacon/
||discover.jll.com^
||msg.71.am^
||mdws.banquelaurentienne.ca^
||mailer.conad.com^
||partneri.dluhopisomat.cz^
||imagenes.marketing.calidad.pucp.edu.pe^
||ljfii.alepel.com^
||pubgifs.com/pixel.gif
||metrics.ilovematlab.cn^
||analytics1.dillards.com^
||smetrics.bmsmedinfo.com^
||target.hsn.com^
pages.e.dyson.com.tr$image
||connect.bdoalliance.com^
||metrics1.citibank.com^
||smetrics.mastercardadvisors.com^
||apptracker.torob.com^
/roi_tracker.js
||dacocorp.actonservice.com^
||psilikaki.openapp.link^
||redfastlabs.com^$third-party
||cane.intel.co.jp^
view.email.hsfcu.com$image
||smetric.volkswagen.it^
||a43634.actonservice.com^
||a8cv.naradenryoku.co.jp^
||lacinfo.motorolasolutions.com^
/detroitchicago/reno.js
||load.stape.eskritor.com^
pages.em.honda.com$image
||firefox.com^$removeparam=redirect_source
||msg-intl.qy.net^
||get.even.com^
email.dashhaiti.org$image
||pc.assets-cosme.net/js/ga.js
/sensor.modern.ncl.min.js
||avaya-engage.avaya.com^
||saa.dyson.com.kw^
||gstatic.com/gadf/ga_dyn.js
||affilate.sklep38.cz^
||eventsink.api.redbee.live^
link.commercialobserver.com$image
||netlog.ru^$third-party
||aiq-in.bestproducts.com^
||landfowl.agoredbuild.com^
||hubspot.com/img/trackers/
||a26394.actonservice.com^
||skillfuldrop.com^
||lancenet.com.br/pw.js
||tracking.vturb.com^
||flix360.com/beat?
||p.liadm.com/click?s=$removeparam=stpe
/ga_footer.js
||globalwebindex.net^$third-party
||gaiaonline.com/internal/mkt_t.php?
||server.cartheorybd.com^
||al.papawash.com^
||data-eb375c9b89.apps.iocnt.de^
||jkgeyo.urbanara.de^
email.accountingedge.com.au$image
?sam-item/track-impressions
||vs.verisure.fr^
||stats.symbiofest.cz^
||a17292.actonservice.com^
||sanalytics.mopo.de^
||blu-ray.com/link/click.php$removeparam=tid
||loon.analogjoe.com^
||tr.email.pointfranchise.co.uk^
||info.westerville.org^
||secureanalytics.avis.de^
||t.360.audion.fm^
||restaurantguru.com/log.php
||bepartof.wechain.eu^
||serverapi.onhappy.com.br^
||dmm.com/imp?
||nsaudience.pl^$third-party
||aiq-in.oprahdaily.com^
||api.target.com/firefly_events/*/events/
@@||dw.cbsi.com/js/dw.js$domain=cnet.com
$removeparam=wt_mc
email.m.angelicadecima.com$image
||gfmmo.steponefoods.com^
||mktg.destinationmarketing.org^
||partners.singularlogic.eu^
||aiq-in.veranda.com^
||data.rmcprivate.com^
$removeparam=_hsmi
||vrvjwr.mobelaris.com^
||idianw.warmteservice.nl^
||utiq.tnrnews.es^
||paypal.com/webapps/beaconweb/
||tk.klm.com^
||track.sp.crdl.io^
1028.sfap-qa1.marketingcloudqaops.com$image
||bing.com/fd/ls/lsp.aspx
||druzja.canmart.co.kr^
||talou.familyframe.co^
||partner.organikk.cz^
||tracking.brady.fr^
||xkycnx.look-it.jp^
||hoverfly.papercrowns.com^
||duckduckgo.com/y.js$removeparam=ad_type
||links.justfab.de^
@@||log.mmstat.com/eg.js$domain=youku.tv
||ggduev.cobone.com^
||aaa.aqualink.tv^
||rtk.mag-store.fun^
||sss.oderland.no^
||flotech.actonservice.com^
view.newsletteroasishoteles.com$image
||testlink.saganworks.com^
||sst.avaresortcancun.com^
||ssitecat.eset.com^
||tracking.ps.shutterstock.com^
||cjejjz.thelasthunt.com^
email.socialhouseentertainment.com$image
||data-497ecca600.volksfreund.de^
||norton.com/service/norton/head?
@@||cdn.optimizely.com/js/$script,domain=store-jp.nintendo.com
||rviunh.tosowoong.com^
||app.investmentadvisors.53.com^
||prod.tools.shortbread.aws.dev/1x1.png?
||act.convergencetraining.com^
view.fedcirbar-mail.org$image
||vidtech.cbsinteractive.com/*/lib/tracking/adobe/VideoHeartbeat-
click.tradelater.telustradein.com$image
||kqhckf.outfits24.de^
||rd.bizrate.com$removeparam=af_rid
/stats.wp.com/*
||ssite.johnlewisfinance.com^
||dsas.danawa.com^
||us.europianmedia.com^
||sst.doctorespulido.com^
||mktg.naturesafe.com^
email.mail.winedering.com$image
email.thebluedot.co$image
||data.media-lab.ai^
||dmebzg.briefing-usa.com^
||images.e.gallup.com^
||internalcomms.dbschenker.com^
||cname-ade.hankoya.com^
||info.southstarcapital.com^
||smetrics.pwc.fr^
||www.mews2ruck.com^
||insights.smashbrand.com^
||axp.mypanhandle.com^
||kickfire.com^$third-party
||a8clk.point-museum.com^
||a36539.actonservice.com^
||sfcev.ragenationapparel.com^
email.3dhubs.com$image
||sit-smetrics.nab.com.au^
||load.chvfszwf.elfinder.dk^
.inxserver.com/transparent.gif
||cnt.iol.it^
||cueohf.actieforum.com^
@@||tatacliq.com^$cookie=/^AMCVS?_.*AdobeOrg/
||goodreads.com/report_metric
||go.colombia.innovatedating.com^
||data.tw-email.princess.com^
||ablink.your-way.bk.com^
||mgvmi.micocinaus.com^
nxslink.cw33.com$image
eml.cariboucoffee.com$image
||changeablecats.com^
||smetrics.cvs.com^
||t.gojacks.com^
||my.weplayvolleyball.it^
||smetrics.essilor.com^
||help.onstove.com/resources/web/js/googleAnalytics.js
||a43596.actonservice.com^
||dvdfab.org^$removeparam=c_ad
||wlkojk.orange.ro^
||load.hinfogzi.sinful.de^
||ave-caesar-mas.modivo.io^
larocheposay.co.kr#%#//scriptlet('set-constant', 'wptg_tagscript.exec', 'noopFunc')
||investing.com^$cookie=udid
||temu.com/api/adx/
||bob.gitclear.com^
||wtmtrack.com^$third-party
||exbujk.glamood.com^
||a8cv.homepage296.com^
||cnstats.cdev.eu^
||limone.iltrovatore.it^
||tracking.hobbyladies.de^
||metric.caixabank.es^
||prod.tracking.refinitiv.com^
||sgtm.cloudfireoficial.com^
||metric.m.nissan-global.com^
||info.culturespanmarketing.com^
||nlbcb.tees2urdoor.com^
||metrics.nissan.es^
view.sanalakeem.com$image
||zdtag.com^$third-party
||nextdoor.*/ajax/ping_ndas/
email.go.menaphysicalrehab.com$image
||tr.clevergivings.com^
||a8.web-hikari.net^
||americanroller.actonservice.com^
||ln.ameba.jp^
||wxbaal.ecosa.com.hk^
||cpiac.particleformen.com^
||sinkou.tireshop.com.br^
email.questbet.com.au$image
||fast.fonts.net/jsapi/core/mt.js
||webanalytics.logitech.com^
||lujaqg.e-blooming.com^
||my.internationalsos.com^
||trck.info.alliantfoundation.com^
view.rackroom-email.com$image
||rqvsws.carreblanc.com^
||link.cofyz.com^
||irgls.redletters.us^
||events.ramavi.com.br^
email.playjonny.com$image
||int.akisinn.me^
/b/ss/*&pagename=
||adobe.navenegocios.ar^
||link.granderota.riadeaveiro.pt^
/PageStats.js
||sohiuc.sheego.de^
email.m.paradisusdei.org$image
||a13709.actonservice.com^
mailmag.hhcross.hankyu-hanshin.jp%2Fc%2F*.gif$image
/owa.Analytics.m.js
||stats.cassidyjames.com^
/nb-collector|
||analytics.adam.page^
||data.promotions.riolasvegas.com^
||tk.airfrance.gf^
||utiq.eventfinder.de^
||joda.corriereadriatico.it^
||hedgehog.fightforthefuture.org^
||smetrics.bd.dk^
||tr.news.c-media.fr^
||tatu.proinvest.com.br^
||ssl.o.univadis.co.uk^
link.teenvogue.com$image
||miaozhen.com^$third-party
||nijml.amsoil.com^
||server.myfollowers.app^
horizon.dailymail.co.uk$image
www3.assetmanagement.pictet$image
||server.sofaprime.com.br^
||my.top4fitness.fi^
||tr.news.franceloc.fr^
||data-1842699cc4.vebidoo.de^
mail.ferret-one.com%2Fbeacon$image
||marketing.lakecountyfl.gov^
||branch.oraleye.com^
email.info.med-tec.top$image
||sst.soundsnap.com^
/shared-content/art/stats/common/tracker.js
||tr.emailing.canalplus-afrique.com^
email.mg.lucky-star9.com$image
||a28307.actonservice.com^
||gtm.zerotelas.com.br^
||somni.getscarlet.com^
||rumt-zh.com^
||lnk.dgsta.com^
@@||googletagmanager.com/gtm.js$domain=beterbed.nl
||deeplink.lamsaworld.com^
||getwarmly.com^$third-party
||stapewithadblock.xyz/stat/
||campaigns.amadeus.com^
||plausible.paimon.moe^
||adat.mediaworks.hu^
||metrics.vwfs.fr^
@@||sp0.baidu.com/*/finance.pae.baidu.com/vapi/async$domain=baidu.com
||email.reflectlyapp.com^
email.fremm.no$image
||partneri.eshop.freli.cz^
||livelib.ru/service/visitlist/
||jmacqo.viata.es^
||clickzs.com^$third-party
$cookie=s_vi
||ablink.newsletters1.motortrend.com^
||gtm.drdanilocastro.com.br^
$cookie=sharedid_cst
||ingest.make.rvohealth.com^
||server.topestperson.com^
view.email.spacewhite.com$image
email.gukhak.org$image
||porqhi.topictravel.nl^
||affil.audioteka.cz^
||fpa-events.newsweek.com^
||certify.nasm.org^
||mds.ricoh-europe.com^
||app.dev.virginradio.co.uk^
||produkte.ricoh.at^
||fiverr.com^$removeparam=imp_id
||stats.multiply.cloud^
cloud.gravie-email.com$image
||metrobyt-mobile.com/self-service-metro/v1/logging
||sgtm.boardsox.com.au^
||metrics.kenwood.com^
||dkqdl.theinkeylist.com^
||ape.pytch.co.uk^
pages.ph.fwd.com$image
||stape.helpageindia.org^
||dvhcob.jtrip.co.jp^
email.bwmortgages.co.nz$image
||mdws.valleyfirst.com^
||xjq5.belambra.be^
||bilibili.com^$removeparam=share_source
||info.atlastravel.com^
||sever.shilpomoy.com^
||nextjscms-sgtm.1800gotjunk.com^
||scontent.xx.fbcdn.net.iberostar.com^
||veoci.actonservice.com^
||gtm.jarvistoyota.com.au^
@@||microsoft.com^$cookie=MUIDB
keepstreams.com^$removeparam=c_sys
@@||kilimall.co.tz/sensorsdata.min.js$~third-party
||learn.ndtco.com^
/hit2.php
||netu.ac/cdn-cgi/trace
||ucc.co.jp/shared/js/gatrack.js
||std.o.rxlist.com^
||stats.uscreen.io^
/loader/counter.js
||t1.stadiumgoods.com^
||gtm.m2tech.cloud^
||marketing.net.idealo-partner.com^$removeparam=smc2
||now.rthometoday.com^
||beinsports.com/hitcountservice^
||analytics.kellerpermits.com^
||infodc.readingpartners.org^
||www.dhenr54m.com^
||metrics.nissan.lv^
||load.api.dedosfalantes.com.br^
pages.sf-us.panasonic.com$image
/mongoose.fp.js
||weco.ilon.de^
||analytics.visible.com^
||progressivedev.actonservice.com^
||hmfnaj.notino.bg^
||landing.newyorkjets.com^
click.promotions.hertz.com$image
view.nothingbundtcakes-email.com$image
@@||cdn.turner.com/analytics/cnnvan/jsmd.min.js$domain=6abc.com
||webtracking.medical.rossu.edu^
email.prod.walmart.ca$image
||load.gtm.mkmfood.com^
||s-cdn.sportbox.ru/sites/all/libraries/design/*/js/user-tracking.global.js
view.communications.securetrust.com$image
||youlead.pl/st?browserid
||api.olugardesilencio.com.br^
||dejavu.mlapps.com^
||track.cmcassets.com^
||a8clk.aoki-style.com^
email.annoanno.de$image
||www.mass1soma.com^
pages.ccb.citi.com$image
||tr.news.manutan-collectivites.fr^
||pubimgs.net/main.gif?
||raw.vidyard.com^
||al.nakayamashouten.com^
||college.marketingcube.com.au^
||gtm.neonseguros.com.br^
pages.emailing.pagesjaunes.fr$image
||corporate.americanexpress.it^
||web.tummytox.it^
||stats.in-tuition.net^
||vppst.iltrovatore.it^
@@||webcenter.tiscali.it/distribuzione/_script/audience_science.js$domain=mail.tiscali.it
||analytics.maikel.pro^
view.email.honeybirdette.com$image
||eatonaero.advancedtech.com^
||my.rtmark.net^
/pix.gif?
||analytics.kidoz.net^
||digital.adt.com.es^
10366.sock-qa1.marketingcloudqaops.com$image
||cope.es/stats/services/recordEvent
||connect.netapp.co.kr^
@@||ks-bueromoebel.shop/*/google-analytics.*.js
||ss.bearing-king.co.uk^
||cptrack.de^$third-party
||data-501446ac98.t-online.de^
||smetrics.winc.com.au^
||engage.ricoh.com.tr^
pages.wwmarquis.com$image
view.em-hmrboston.com$image
email.mg.listu.com.tw$image
||lp.healthinfo.thechristhospital.com^
||axp.wane.com^
||event.thermoscientific.com^
||data.ohgreen.be^
||scarceshock.com^
email.yogasoup.com$image
||cosmo.ru/*/.js?i=*&r=
||load.d.hobbii.ch^
||lsimg.net^*/vs.js
||a28302.actonservice.com^
clicks.momentousa.com$image
||finalizeforce.com^
||sheego.de/ar/$third-party
$removeparam=jmtyClId
||ssa.eurosport.pt^
link.1075thefan.com$image
||tunein.com/api/*/comscore
||sw88.nationalgeographic.de^
||acwbzb.compagniedesspas.fr^
||tracking.atea.dk^
||ssp*.rtb.beeline.ru^
||tatu.deliveryon.com.br^
email.buyerschoice.com.au$image
@@||js.monitor.azure.com/scripts/c/ms.jsll-*.min.js$domain=visualstudio.microsoft.com
||data.a.mitchellandness.com^
||dr6vcclmzwk74.cloudfront.net^
||cookies.jll.pl^
||retargeted.co^$third-party
email.mg.indsch.edu.sc$image
click.marketing.bankcnb.com$image
||smetric.chuys.com^
email.cyberaware.egopharm.com$image
||statwup.nimo.tv^
||ssc.kcamexico.com^
://internal-matomo.
||marketing.vrcis.com^
||u46.pnc.com^
||go.lunchr.co^
||uzghm.hufworldwide.com^
mail.hellotech.com$image
appeml.emailonacid.com$image
||top100-images.rambler.ru^
||tracking.aupairinamerica.com^
click.workshop.virtualeducations.com$image
||metrics.similac.com.tr^
cloud.mkt.crehana.com$image
||sp-trk.com^$third-party
view.news.mediosmasivos.com.mx$image
||at.cbsi.com/lib/api/client-info
||load.ggl.luminairestendance.com^
||analytics.nearapy.com^
||tracker.vidamaisnatura.com.br^
||neoss.lummia.com.mx^
||nqyuel589fq5.esgrounding.com^
||d169bbxks24g2u.cloudfront.net^
||sp.montgomeryadvertiser.com^
email.armsofeve.com$image
||arcspire.io^
||frdoki.gamefactory.jp^
||gtm.clinicabanduki.com^
click.news.daraz.com.bd$image
||te.ackermann.ch^
||data-84a0f3455d.transfermarkt.pe^
||sensors.ibreader.com^
||frogator.com^
||stape.escolacarolferrera.com.br^
@@||heatmap.it^$domain=heatmap.me
||data.mc.creditacceptance.com^
||analytics.myhermes.de^
||stape.lariiraha.com.br^
||a28200.actonservice.com^
||hao123.com^$cookie=traceid
||analytics.esporteinterativo.com.br^
||b.rohde-schwarz.com^
||stats.southernphone.com.au^
||a43333.actonservice.com^
||smetric.bahamabreeze.com^
||metrics.nysdot.gov^
||tracking.lenovopartnernetwork.com^
||-production10537981.net.daraz.com^
||members.atomcomplete.com^
||vubao.elliemax-perth.com^
||mooncrustpizza.com^
@@||zappos.com/js/trackingPixel/mercentTracker.js
||smetrics.alfalaval.kr^
||www.copy9loom.com^
dripemail2$image
||refer.gober.app^
||track.enterpriseconnect.com^
||data-fdbbf15b66.finanzen.at^
||app.wudju.de^
||api.grupogpressi.com.br^
||adtarget.fcbarcelona.fr^
||tracking1.tena.com^
||t.mountainhardwear.ch^
||tr.sash02g.espmp-nifr.net^
||pixel.safe-installation.com^$third-party
click.xoomenergy-email.com$image
||bxumze.chieftain.com^
||toeopa.doutornature.com^
||ssl-gala.met.vgwort.de^
||t.tnafpt.com^
||pailcrime.com^
||tr.membres.boursobank.info^
horizon.prevention.com$image
||server.bonikstore.com^
email.community.jeanettecremor.com.au$image
||cmp.tek.no^
||buydomains.com/lander/*?domain=$removeparam
||sanalytics.metro.cn^
||a35851.actonservice.com^
||www.longterminvestmentsolutions.com^
||erptruth.kronos.com^
||stvkr.com/v*/click-$removeparam=sa
||dev-dl.oneworldonesai.com^
||dgbwya.evyapshop.com^
||partner.resinstudio.cz^
/c_track.php?
||secure.medtronichealth.medtronic.com^
||hotels.com/cl/data/omgpixel.json?
||images.service.boonedam.co.uk^
||skplanet.com/pixel?
||realting.com/*-counter|
||app03.ikk-classic.de^
||qaghzg.planteon.pl^
email.aac.ab.ca$image
pages.email.flightstats.com$image
||webbificio.com/wm.asp?
||odjdpy.jobware.de^
||a8cv.forza-gran.com^
||metrics.accuweather.com^
||stape.programacorramaisrapido.com.br^
||ibeat-analytics.com^$third-party
||gtm.muscleandmotion.com^
||rdtk.practs.de^
||luxupcdnc.com^$third-party
||www.direct-aws-a1.com^
||a20221.actonservice.com^
||connect.geniecompany.com^
||tru.am^$third-party
email.fbandtbank.com$image
||food.pentonmarketingsvcs.com^
||nexus.tdinsurance.com^
||smetrics.finance.vwcredit.com^
||gtm.iconcancercentre.id^
email.dokirex.hu$image
||trk.en.business.westernunion.fr^
$removeparam=ActionID,domain=otto.de|ottoversand.at
click.mkt.marcolino1926.net$image
||metrics.westpac.com.au^
view.education.dispatchhealth.com$image
||analytics.certifriedit.com^
||smetrics.foniksprivatlan.no^
||analytics-server.arras.cx^
||aggalj.eloem.kr^
||server.nityapanya.com^
||sagor.pridito.shop^
view.email.cplretailenergy.com$image
||load.server.businessarts.it^
||smetrics.ybs.co.uk^
/pixel_identifier.js
@@||aolcdn.com^*/beacon.min.js$domain=autoblog.com|dailyfinance.com
/googleEventTracking.js
||smetrics.allaboutwater.com^
.goodwell18.com/track/
||my.top4fitness.ro^
@@||cloudfront.net/libs/amplitude-$script,domain=elconfidencial.com
click.email.patpat.com$image
||market123.williamsmedia.co^
||load.s2.anivetdirect.hu^
/trackpageview.js
||go.eyefinity.com^
email.inspius.com$image
link.livingsocial.ie$image
||xiqvza.dickblick.com^
/segment/api/*
||dnxlgencstz4.cloudfront.net^
||ea.nomade-aventure.com^
||data.email.americafirst.com^
click.email.cgccomics.com$image
||aa.analog.com^
||scout.bergfreunde.it^
||super.cz/*/track?
||yandeg.ru/count$third-party
||zergb.shopavara.com^
||smb.info.shutterstock.com^
/realtimeapi/impression?
||a14489.actonservice.com^
||trk.jeffersonhealth.org^
email.gbs.emory.edu$image
||utiq.diaridegirona.cat^
@@||ghstatic.com/images/site/zylom/scripts/google-analytics.js?$domain=zylom.com
||images.response.vodafone.co.nz^
||smetrics.lambweston.com^
||data.email.partycity.com^
email.valueforkids.nl$image
||rodale.com/ga/
view.sftest.pega.com$image
||affirm.com/api/v2/cookie_sent
||oo-syringe.com/prod/moat.js
||trck.info.lloydslistintelligence.com^
||pyqfjx.medwing.com^
||oj2q8.montecarlosbm.book-secure.com^
||offers.linkelectric.com^
email.gallerix.com$image
||kwalnc.vans.co.kr^
||ablink.tchicken.popeyes.com^
||store.udiscovermusic.com^$removeparam=/utm_/
||rihiv.lumindrops.co^
||track.cedsdigital.it^
||smetrics.bankwest.com.au^
||smetrics.lillymedical.com^
||smetrics.sony.be^
||smetrics.mangoshotta.com^
@@||n8s.jp^$script,domain=nikkei.com
||gtm.carlarangel.com.br^
||email-am.jll.com.ar^
||slazq.wakakuu.com^
||sentrymagic.com^
email.mail7.smrtermail.com$image
||tracking.ntl.no^
||dvdfab.org^$removeparam=c_ex
||zopqks.kavehome.com^
/vwFiles/analytics/*
||prisma-tr.prismamedia.com^
||info.clarustaxcredits.com^
||tracking.stihl.de^
||saa.dyson.fr^
||khanacademy.org/api/internal/_analytics/
||tracking.flowofwork.adp.com^
||a29388.actonservice.com^
||archived.first.eloqua.extrahop.com^
||marketing.gwcontainers.com^
email.eldercare.com$image
view.e-melbourneairport.com.au$image
$cookie=weba_apprlid
||fmhzi.ergopouch.com.au^
||securecookiesdustininfo.dustin.fi^
||zjxuuk.goldpang.com^
||acro.egghead.link^
||okto1.spsglobal.com^
||invite.abra.com^
||data-16d7ec9a30.wn-net.de^
||sst.sohoonorge.com^
||guiltlessbasketball.com^
email.gameclub.io$image
@@||d2.alternativeto.net/dist/*/piwik_*.png
||ssc.elsaha.com^
@@||mtvnetworks.tt.omtrdc.net^$script,domain=mtv.com
||email.everyonesocial.inmoment.com^
||zeotap.com^$third-party
||aiq-in.townandcountrymag.com^
||dataroid.com^$third-party
||ebis.re-shop.jp^
horizon.complex.com$image
cloud.mail.garagerutten.be$image
$removeparam=stm_medium,domain=shopee.ph|shopee.co.th|shopee.co.id
||emails.sciencechannel.com^
click.mailer.denondj.com$image
||data.info.clear.com.br^
||slashdot.org/country.js
||smilingmaster.com^
||wvvw.rfi.fr^
||connect.grassicpas.com^
||antitracking.owncast.online^
||tracking.lucky.nl^
||a8clk.dr-10.com^
||ucoz.kz/stat/
||dii3.zooplus.es^
||a45519.actonservice.com^
||shop.app/pay/hop?analytics_trace_id=
||widget.fitanalytics.com/widget.js$script,redirect=noopjs,domain=pullandbear.com
||amazon.*$removeparam=ts_id
||link.appewa.com^
pages.notifications.email.chargepoint.com$image
||transmissionapp.jacoblegrone.com^
||care.selectdr.com^
||brightdata.com^$third-party
||tvjjo.pretavoir.co.uk^
||dii2.zooplus.fi^
||tss.onestep.fr^
||go.sitesapostasbrasil.com^
||burner.bodyline.ro^